p tw 60 120
0 1
0 2
0 3
0 4
1 2
1 42
1 46
2 35
2 46
3 4
3 55
3 56
4 56
4 57
5 6
5 7
5 34
5 40
6 7
6 25
6 29
7 11
7 25
8 9
8 10
8 26
8 49
9 10
9 49
9 50
10 53
10 58
11 12
11 13
11 25
12 13
12 44
12 45
13 33
13 44
14 15
14 16
14 31
14 43
15 16
15 17
15 50
16 17
16 18
17 18
17 50
18 27
18 59
19 20
19 21
19 52
19 54
20 21
20 23
20 54
21 38
21 41
22 23
22 24
22 47
22 48
23 24
23 54
24 45
24 48
25 29
26 27
26 28
26 49
27 28
27 59
28 57
28 59
29 32
29 33
30 31
30 32
30 43
30 47
31 32
31 43
32 33
33 44
34 35
34 36
34 40
35 36
35 46
36 40
36 55
37 38
37 39
37 51
37 58
38 39
38 41
39 41
39 42
40 55
41 42
42 46
43 47
44 45
45 48
47 48
49 50
51 52
51 53
51 58
52 53
52 54
53 58
55 56
56 57
57 59
